5	7	3				
3	1					
147	123	145	0	0	0	0
123	130	0	140	0	0	0
0	0	0	150	160	0	200
						
3	1					
214	0	150	0	0	0	0
0	66	87	99	0	0	0
0	0	0	0	178	95	150
						
3	3					
87	62	0	0	0	0	0
0	0	180	105	0	0	145
0	0	0	190	100	153	0
						
3	4					
87	65	0	0	0	0	0
0	0	250	0	173	0	0
0	0	0	145	0	136	0
						
3	5					
128	123	145	0	0	0	0
0	0	86	65	47	0	0
0	0	0	0	110	85	0
